
Gurobi 11.0.3 (linux64) logging started Mon 18 Nov 2024 07:24:39 PM CST

Set parameter LogFile to value "/home/dlcole3/graph_abstraction/hierarchical_graphs/git_storage/CS1/HP_low_reserves/gurobi_logs/serial/logfile_ST3_5.log"

Gurobi 11.0.3 (linux64) logging started Mon 18 Nov 2024 07:28:00 PM CST

Set parameter LogFile to value "/home/dlcole3/graph_abstraction/hierarchical_graphs/git_storage/CS1/HP_low_reserves/gurobi_logs/serial/logfile_ST3_5.log"
Gurobi Optimizer version 11.0.3 build v11.0.3rc0 (linux64 - "Ubuntu 18.04.3 LTS")

CPU model: Intel(R) Xeon(R) CPU E5-2698 v4 @ 2.20GHz, instruction set [SSE2|AVX|AVX2]
Thread count: 40 physical cores, 80 logical processors, using up to 20 threads

Optimize a model with 29168 rows, 50688 columns and 136175 nonzeros
Model fingerprint: 0xa22126a5
Variable types: 46944 continuous, 3744 integer (3744 binary)
Coefficient statistics:
  Matrix range     [6e-01, 2e+04]
  Objective range  [2e+00, 2e+04]
  Bounds range     [5e-02, 2e+05]
  RHS range        [5e-02, 7e+03]
Presolve removed 13914 rows and 38434 columns
Presolve time: 0.36s
Presolved: 15254 rows, 12254 columns, 64486 nonzeros
Variable types: 9291 continuous, 2963 integer (2963 binary)
Found heuristic solution: objective 174000.29152
Found heuristic solution: objective 166427.81965
Found heuristic solution: objective 136181.05750

Root relaxation: objective 2.915687e+04, 7380 iterations, 0.29 seconds (0.22 work units)

    Nodes    |    Current Node    |     Objective Bounds      |     Work
 Expl Unexpl |  Obj  Depth IntInf | Incumbent    BestBd   Gap | It/Node Time

     0     0 29156.8662    0   14 136181.058 29156.8662  78.6%     -    1s
H    0     0                    134012.40949 29156.8662  78.2%     -    1s
H    0     0                    30370.673828 29156.8662  4.00%     -    1s
     0     0 29156.8662    0   14 30370.6738 29156.8662  4.00%     -    1s
     0     0 29156.8662    0   10 30370.6738 29156.8662  4.00%     -    2s
     0     0 29156.8662    0   10 30370.6738 29156.8662  4.00%     -    2s
     0     0 29156.8662    0   10 30370.6738 29156.8662  4.00%     -    2s
     0     2 29156.8662    0   10 30370.6738 29156.8662  4.00%     -    3s
H   44    47                    30059.210357 29157.9827  3.00%  14.5    3s
H   48    47                    29930.153042 29157.9827  2.58%  13.5    3s
H   48    47                    29892.627672 29157.9827  2.46%  13.5    3s
H   49    47                    29892.627666 29157.9827  2.46%  14.4    3s
H   92    61                    29892.627647 29157.9827  2.46%  12.3    3s
H   95    61                    29892.627641 29157.9827  2.46%  12.1    3s
H  321    65                    29892.627558 29157.9827  2.46%  12.2    4s
   342    66 29659.4170    9    9 29892.6276 29157.9827  2.46%  12.1    5s
H  369    69                    29892.627439 29157.9827  2.46%  11.7    5s

Explored 814 nodes (22399 simplex iterations) in 5.76 seconds (4.00 work units)
Thread count was 20 (of 80 available processors)

Solution count 9: 29892.6 29892.6 29892.6 ... 174000

Optimal solution found (tolerance 3.00e-03)
Best objective 2.989262744119e+04, best bound 2.989262743869e+04, gap 0.0000%

User-callback calls 3736, time in user-callback 0.00 sec
